69
27
119
189
756
978
393
1670
1773
1735
114
450
973
3436
3493
5545
5841
2823
4659
1951
7888
10049
7563
9910
9502
6158
10222
7424
10665
6783
1508
18521
1119
16144
13825
26192
2862
1283
2250
13060
28685
20834
32272
32440
16827
26384
38766
23078
38594
41406
41634
21869
38397
12403
47470
35460
17832
40655
50073
21062
21617
54275
59446
49044
44443
62838
56352
57240
80411
42779
37313
70257
74523
25868
75266
21061
53842
95481
96937
19663
19951
66771
90457
73667
124189
40648
58558
95617
13805
152065
137556
122147
139881
59796
20646
61957
51330
44084
111509
163847
